n_res = 4;
rc = [ 15, 21, 21, 22 ];
n_tasks = 30;
d = [ 6, 1, 2, 9, 8, 5, 5, 6, 4, 8, 4, 10, 9, 2, 7, 6, 1, 9, 10, 7, 10, 10, 9, 3, 5, 5, 7, 8, 8, 10 ];
rr = [| 0, 0, 9, 0, 0, 0, 0, 0, 8, 0, 0, 0, 0, 0, 8, 0, 0, 8, 0, 1, 0, 0, 0, 0, 0, 2, 6, 5, 5, 7
      | 0, 8, 2, 3, 0, 3, 7, 0, 9, 10, 0, 2, 0, 0, 0, 6, 0, 0, 10, 3, 0, 0, 3, 0, 10, 0, 0, 0, 5, 0
      | 8, 6, 0, 0, 0, 0, 5, 0, 1, 0, 0, 5, 9, 0, 1, 7, 8, 0, 0, 0, 8, 4, 0, 6, 0, 8, 10, 0, 10, 3
      | 1, 5, 5, 3, 1, 9, 0, 7, 3, 3, 8, 0, 0, 4, 2, 6, 0, 9, 0, 8, 1, 10, 0, 0, 7, 10, 1, 0, 0, 2 |];
suc = [ { 2 }, 
        { 1 }, 
        { 4 }, 
        { 3 }, 
        { 6 }, 
        { 5 }, 
        { 8 }, 
        { 7 }, 
        { 10 }, 
        { 9 }, 
        { 12 }, 
        { 11 }, 
        { 14 }, 
        { 13 }, 
        { 16 }, 
        { 15 }, 
        { 18 }, 
        { 17 }, 
        { 20 }, 
        { 19 }, 
        { 22 }, 
        { 21 }, 
        { 24 }, 
        { 23 }, 
        { 26 }, 
        { 25 }, 
        { 28 }, 
        { 27 }, 
        { 30 }, 
        { 29 }]; 
